
Gurobi 9.1.2 (win64) logging started Tue Dec  7 14:23:23 2021

Gurobi Optimizer version 9.1.2 build v9.1.2rc0 (win64)
Thread count: 8 physical cores, 8 logical processors, using up to 8 threads
Optimize a model with 1 rows, 241 columns and 240 nonzeros
Model fingerprint: 0x5accd030
Variable types: 1 continuous, 240 integer (240 binary)
Coefficient statistics:
  Matrix range     [1e+00, 1e+01]
  Objective range  [1e+00, 1e+00]
  Bounds range     [2e+02, 2e+02]
  RHS range        [1e+01, 1e+01]
Presolve time: 0.00s
Presolved: 1 rows, 241 columns, 240 nonzeros
Variable types: 1 continuous, 240 integer (240 binary)

Root simplex log...

Iteration    Objective       Primal Inf.    Dual Inf.      Time
       0   -2.1024793e+02   3.193740e-01   0.000000e+00     15s
       7   -1.8540821e+02   0.000000e+00   0.000000e+00     15s

Root relaxation: objective -1.854082e+02, 7 iterations, 0.00 seconds

    Nodes    |    Current Node    |     Objective Bounds      |     Work
 Expl Unexpl |  Obj  Depth IntInf | Incumbent    BestBd   Gap | It/Node Time

     0     0 -171.75988    0    2          - -171.75988      -     -   15s
H    0     0                       0.6326760 -171.75988      -     -   15s
H    0     0                       0.6031343 -171.75988      -     -   16s
H    0     0                       0.5991232 -171.75988      -     -   17s
     0     0 -122.78758    0    6    0.59912 -122.78758      -     -   18s
H    0     0                       0.2068259 -122.78758      -     -   18s
H    0     0                       0.1979604 -122.78758      -     -   18s
     0     0 -110.21169    0   10    0.19796 -110.21169      -     -   19s
H    0     0                       0.1979604 -110.21169      -     -   19s
     0     0 -101.25660    0    9    0.19796 -101.25660      -     -   19s
     0     0 -100.40188    0   10    0.19796 -100.40188      -     -   19s
     0     0  -75.08330    0    7    0.19796  -75.08330      -     -   19s
     0     0  -69.56320    0    6    0.19796  -69.56320      -     -   19s
     0     0  -69.26280    0    6    0.19796  -69.26280      -     -   19s
     0     0  -68.76513    0    7    0.19796  -68.76513      -     -   19s
     0     0  -51.48099    0    6    0.19796  -51.48099      -     -   19s
     0     0  -51.48099    0    5    0.19796  -51.48099      -     -   19s
     0     0  -34.89447    0    5    0.19796  -34.89447      -     -   20s
     0     0  -27.07669    0    6    0.19796  -27.07669      -     -   20s
     0     0  -26.90930    0    6    0.19796  -26.90930      -     -   20s
     0     0  -13.89721    0    9    0.19796  -13.89721  7120%     -   20s
     0     0  -13.89714    0   10    0.19796  -13.89714  7120%     -   20s
     0     0  -10.96650    0   11    0.19796  -10.96650  5640%     -   20s
     0     0  -10.91855    0   10    0.19796  -10.91855  5616%     -   20s
     0     0  -10.45812    0    9    0.19796  -10.45812  5383%     -   20s
     0     0  -10.34523    0   10    0.19796  -10.34523  5326%     -   20s
     0     0  -10.31918    0    9    0.19796  -10.31918  5313%     -   20s
     0     0  -10.15231    0   11    0.19796  -10.15231  5228%     -   20s
H    0     0                       0.1979604  -10.15231  5228%     -   20s
     0     0  -10.15013    0   11    0.19796  -10.15013  5227%     -   20s
     0     0   -9.98160    0    9    0.19796   -9.98160  5142%     -   20s
     0     0   -9.94803    0    9    0.19796   -9.94803  5125%     -   20s
     0     0   -9.94208    0   11    0.19796   -9.94208  5122%     -   20s
     0     0   -9.91439    0   11    0.19796   -9.91439  5108%     -   20s
     0     0   -9.90660    0   10    0.19796   -9.90660  5104%     -   20s
     0     0   -9.89618    0   11    0.19796   -9.89618  5099%     -   20s
     0     0   -9.89618    0   11    0.19796   -9.89618  5099%     -   20s
     0     2   -9.89618    0   11    0.19796   -9.89618  5099%     -   20s

Cutting planes:
  MIR: 9
  RLT: 2
  Relax-and-lift: 1
  Lazy constraints: 1

Explored 41 nodes (338 simplex iterations) in 20.17 seconds
Thread count was 8 (of 8 available processors)

Solution count 5: 0.19796 0.206826 0.599123 ... 0.632676

Optimal solution found (tolerance 1.00e-04)
Best objective 1.979603882411e-01, best bound 1.979603882411e-01, gap 0.0000%

User-callback calls 343, time in user-callback 23.84 sec
